c CNF
c from Selman's wff generator
p cnf 200  1800
1.0 98 -168 0
1.0 -85 111 0
1.0 -149 -33 0
1.0 139 72 0
1.0 118 45 0
1.0 136 191 0
1.0 194 53 0
1.0 -129 3 0
1.0 -171 141 0
1.0 52 -98 0
1.0 -131 67 0
1.0 139 175 0
1.0 -19 -146 0
1.0 137 -128 0
1.0 181 -57 0
1.0 -59 139 0
1.0 80 -118 0
1.0 -15 -159 0
1.0 25 -46 0
1.0 20 88 0
1.0 -33 -131 0
1.0 59 194 0
1.0 -50 -126 0
1.0 -65 -82 0
1.0 199 23 0
1.0 -181 3 0
1.0 -49 170 0
1.0 -58 188 0
1.0 118 -99 0
1.0 93 -158 0
1.0 84 -162 0
1.0 43 189 0
1.0 11 -165 0
1.0 -168 12 0
1.0 182 164 0
1.0 -151 191 0
1.0 90 -187 0
1.0 -145 59 0
1.0 -21 176 0
1.0 -165 -68 0
1.0 -33 159 0
1.0 170 -163 0
1.0 -127 102 0
1.0 -93 -117 0
1.0 -104 190 0
1.0 48 89 0
1.0 -64 54 0
1.0 122 -36 0
1.0 -195 -171 0
1.0 -134 172 0
1.0 -73 -103 0
1.0 -20 -82 0
1.0 -71 -111 0
1.0 -199 48 0
1.0 101 119 0
1.0 -155 -96 0
1.0 -67 -131 0
1.0 102 -26 0
1.0 -129 -195 0
1.0 77 -87 0
1.0 197 -43 0
1.0 90 -54 0
1.0 173 -150 0
1.0 45 -189 0
1.0 -120 188 0
1.0 -14 -169 0
1.0 164 136 0
1.0 -22 161 0
1.0 3 54 0
1.0 108 72 0
1.0 22 97 0
1.0 -86 82 0
1.0 69 86 0
1.0 55 22 0
1.0 157 -114 0
1.0 -75 45 0
1.0 -99 11 0
1.0 83 -54 0
1.0 -151 93 0
1.0 175 146 0
1.0 -31 66 0
1.0 -87 149 0
1.0 62 -160 0
1.0 5 -19 0
1.0 -29 -183 0
1.0 37 -196 0
1.0 88 184 0
1.0 -129 -62 0
1.0 128 30 0
1.0 178 148 0
1.0 -108 -79 0
1.0 97 -189 0
1.0 172 125 0
1.0 -121 51 0
1.0 35 -17 0
1.0 -78 175 0
1.0 4 -168 0
1.0 116 76 0
1.0 -155 197 0
1.0 -186 -150 0
1.0 -75 -13 0
1.0 64 159 0
1.0 176 73 0
1.0 47 185 0
1.0 153 77 0
1.0 153 -54 0
1.0 -50 25 0
1.0 -175 135 0
1.0 147 157 0
1.0 -116 47 0
1.0 -119 -170 0
1.0 155 -2 0
1.0 -79 48 0
1.0 -101 -63 0
1.0 -87 96 0
1.0 -30 -178 0
1.0 -134 154 0
1.0 -200 -96 0
1.0 66 83 0
1.0 -84 -99 0
1.0 -146 99 0
1.0 -162 131 0
1.0 -27 183 0
1.0 160 19 0
1.0 -173 -20 0
1.0 116 -81 0
1.0 -163 173 0
1.0 72 125 0
1.0 23 -200 0
1.0 130 -61 0
1.0 43 142 0
1.0 160 -45 0
1.0 -64 -37 0
1.0 -117 195 0
1.0 -168 159 0
1.0 84 -131 0
1.0 130 120 0
1.0 181 122 0
1.0 63 26 0
1.0 -70 -121 0
1.0 -157 60 0
1.0 -55 72 0
1.0 31 -75 0
1.0 5 -117 0
1.0 -37 110 0
1.0 32 8 0
1.0 -33 -67 0
1.0 187 -73 0
1.0 133 -149 0
1.0 21 168 0
1.0 -42 68 0
1.0 185 182 0
1.0 -175 -37 0
1.0 78 -20 0
1.0 -138 118 0
1.0 -154 -74 0
1.0 -90 129 0
1.0 137 175 0
1.0 -140 -147 0
1.0 128 -9 0
1.0 46 -144 0
1.0 164 -99 0
1.0 -16 -196 0
1.0 70 -52 0
1.0 181 -195 0
1.0 -170 -116 0
1.0 62 -109 0
1.0 117 -52 0
1.0 195 -175 0
1.0 73 150 0
1.0 145 168 0
1.0 -20 -130 0
1.0 -124 191 0
1.0 106 -36 0
1.0 -144 36 0
1.0 87 48 0
1.0 22 105 0
1.0 -54 -96 0
1.0 64 41 0
1.0 170 187 0
1.0 -177 197 0
1.0 33 -190 0
1.0 25 -7 0
1.0 -54 58 0
1.0 -162 31 0
1.0 127 -153 0
1.0 193 -28 0
1.0 14 -154 0
1.0 151 -43 0
1.0 -33 124 0
1.0 -130 -196 0
1.0 53 162 0
1.0 193 -29 0
1.0 -181 -44 0
1.0 -72 182 0
1.0 136 192 0
1.0 35 149 0
1.0 -72 29 0
1.0 -25 93 0
1.0 54 43 0
1.0 -71 121 0
1.0 165 75 0
1.0 -57 -161 0
1.0 153 -197 0
1.0 146 149 0
1.0 178 19 0
1.0 -3 78 0
1.0 -169 171 0
1.0 136 168 0
1.0 192 -89 0
1.0 -9 59 0
1.0 -137 92 0
1.0 146 -168 0
1.0 -186 -64 0
1.0 141 -118 0
1.0 -88 150 0
1.0 118 -51 0
1.0 139 -99 0
1.0 -157 167 0
1.0 -58 104 0
1.0 -71 40 0
1.0 103 119 0
1.0 -36 -79 0
1.0 -29 -152 0
1.0 2 -179 0
1.0 77 116 0
1.0 -82 -42 0
1.0 -146 105 0
1.0 145 68 0
1.0 187 118 0
1.0 -196 45 0
1.0 -196 -91 0
1.0 -70 -25 0
1.0 -141 27 0
1.0 -69 106 0
1.0 10 -105 0
1.0 173 -102 0
1.0 -19 93 0
1.0 137 -127 0
1.0 -18 9 0
1.0 34 -67 0
1.0 -93 -11 0
1.0 -117 -158 0
1.0 63 3 0
1.0 -105 -82 0
1.0 -174 -175 0
1.0 101 -176 0
1.0 185 170 0
1.0 -36 193 0
1.0 -189 -89 0
1.0 63 89 0
1.0 -169 43 0
1.0 36 93 0
1.0 -30 134 0
1.0 -175 -28 0
1.0 -31 9 0
1.0 -1 -107 0
1.0 -195 75 0
1.0 -163 -143 0
1.0 -186 93 0
1.0 185 6 0
1.0 139 -141 0
1.0 168 -10 0
1.0 18 35 0
1.0 141 -177 0
1.0 -51 142 0
1.0 -84 116 0
1.0 9 -127 0
1.0 133 121 0
1.0 -61 27 0
1.0 37 39 0
1.0 73 92 0
1.0 -68 -79 0
1.0 -20 -142 0
1.0 -57 78 0
1.0 5 -63 0
1.0 183 66 0
1.0 93 -190 0
1.0 -29 -99 0
1.0 -190 55 0
1.0 -133 -64 0
1.0 5 109 0
1.0 -186 -29 0
1.0 -91 185 0
1.0 -51 -134 0
1.0 124 -188 0
1.0 86 53 0
1.0 -107 169 0
1.0 -32 109 0
1.0 17 48 0
1.0 -77 -23 0
1.0 8 120 0
1.0 -53 -158 0
1.0 -146 71 0
1.0 -123 182 0
1.0 151 -39 0
1.0 147 -62 0
1.0 -110 -115 0
1.0 -138 -159 0
1.0 78 -195 0
1.0 -152 2 0
1.0 -72 -35 0
1.0 16 -35 0
1.0 -74 94 0
1.0 -155 166 0
1.0 80 149 0
1.0 -108 -3 0
1.0 -197 -165 0
1.0 166 21 0
1.0 55 174 0
1.0 8 57 0
1.0 -151 -185 0
1.0 -150 84 0
1.0 33 -19 0
1.0 -22 9 0
1.0 -173 -39 0
1.0 -60 -11 0
1.0 -184 -9 0
1.0 66 21 0
1.0 -5 -173 0
1.0 -56 91 0
1.0 110 -30 0
1.0 -39 152 0
1.0 -191 114 0
1.0 -125 -126 0
1.0 -134 -148 0
1.0 169 -173 0
1.0 -145 137 0
1.0 27 -111 0
1.0 141 -117 0
1.0 -68 15 0
1.0 -128 140 0
1.0 -66 -72 0
1.0 -20 -62 0
1.0 -34 -13 0
1.0 -149 -87 0
1.0 -198 -67 0
1.0 -183 178 0
1.0 -192 -107 0
1.0 -46 -17 0
1.0 -88 -133 0
1.0 194 108 0
1.0 121 54 0
1.0 141 -183 0
1.0 50 156 0
1.0 133 -192 0
1.0 98 -191 0
1.0 7 15 0
1.0 148 -165 0
1.0 -73 -95 0
1.0 148 173 0
1.0 156 107 0
1.0 63 -102 0
1.0 -94 -119 0
1.0 -109 -162 0
1.0 177 -188 0
1.0 152 10 0
1.0 104 33 0
1.0 -6 -79 0
1.0 -185 167 0
1.0 69 -2 0
1.0 -121 161 0
1.0 -123 86 0
1.0 74 153 0
1.0 163 87 0
1.0 -119 -67 0
1.0 145 -57 0
1.0 -24 51 0
1.0 52 -19 0
1.0 179 -6 0
1.0 -92 -145 0
1.0 -98 22 0
1.0 -108 41 0
1.0 -107 43 0
1.0 -100 -34 0
1.0 84 -158 0
1.0 -177 -68 0
1.0 74 -109 0
1.0 -54 -56 0
1.0 77 -121 0
1.0 161 137 0
1.0 -179 159 0
1.0 193 99 0
1.0 56 16 0
1.0 -83 -120 0
1.0 -29 44 0
1.0 99 -51 0
1.0 -171 -44 0
1.0 -181 -169 0
1.0 127 -115 0
1.0 -14 39 0
1.0 -54 -7 0
1.0 127 -88 0
1.0 132 14 0
1.0 65 69 0
1.0 -113 164 0
1.0 133 164 0
1.0 -79 91 0
1.0 -129 -173 0
1.0 -179 -61 0
1.0 149 11 0
1.0 -24 96 0
1.0 -165 115 0
1.0 -79 90 0
1.0 53 -24 0
1.0 114 47 0
1.0 19 -182 0
1.0 -43 -142 0
1.0 152 -163 0
1.0 58 181 0
1.0 95 -187 0
1.0 -77 -71 0
1.0 95 53 0
1.0 100 -82 0
1.0 -63 -75 0
1.0 16 -19 0
1.0 -181 168 0
1.0 148 6 0
1.0 193 162 0
1.0 -32 -199 0
1.0 -52 -57 0
1.0 138 186 0
1.0 -60 184 0
1.0 3 -2 0
1.0 169 -185 0
1.0 -191 -84 0
1.0 45 174 0
1.0 173 49 0
1.0 -105 137 0
1.0 122 -43 0
1.0 27 148 0
1.0 150 -99 0
1.0 84 35 0
1.0 118 -193 0
1.0 166 -108 0
1.0 -156 40 0
1.0 -177 136 0
1.0 179 145 0
1.0 92 136 0
1.0 -35 -46 0
1.0 -80 -193 0
1.0 -186 -48 0
1.0 155 -196 0
1.0 -36 51 0
1.0 -187 -73 0
1.0 -17 -188 0
1.0 -124 -4 0
1.0 50 -109 0
1.0 -102 66 0
1.0 113 85 0
1.0 -80 -126 0
1.0 -177 -147 0
1.0 -20 35 0
1.0 -23 -97 0
1.0 -101 -94 0
1.0 3 -178 0
1.0 -43 -5 0
1.0 89 -27 0
1.0 153 -200 0
1.0 147 -9 0
1.0 44 20 0
1.0 117 146 0
1.0 -40 116 0
1.0 -93 -45 0
1.0 49 -136 0
1.0 -163 -114 0
1.0 113 188 0
1.0 196 136 0
1.0 -155 27 0
1.0 172 119 0
1.0 34 -53 0
1.0 97 -199 0
1.0 134 154 0
1.0 67 -186 0
1.0 173 -55 0
1.0 190 -64 0
1.0 90 115 0
1.0 33 103 0
1.0 -156 127 0
1.0 -125 55 0
1.0 -8 79 0
1.0 65 164 0
1.0 19 94 0
1.0 -158 15 0
1.0 -129 -168 0
1.0 71 183 0
1.0 109 21 0
1.0 75 76 0
1.0 -155 45 0
1.0 9 12 0
1.0 106 62 0
1.0 -76 188 0
1.0 -156 20 0
1.0 3 -193 0
1.0 -13 130 0
1.0 -5 -36 0
1.0 -81 127 0
1.0 -139 34 0
1.0 -95 -151 0
1.0 -138 18 0
1.0 -38 140 0
1.0 -132 -170 0
1.0 100 -96 0
1.0 131 3 0
1.0 -129 41 0
1.0 -74 -17 0
1.0 -167 -19 0
1.0 -36 113 0
1.0 -52 -115 0
1.0 -85 -64 0
1.0 159 161 0
1.0 -163 151 0
1.0 -192 2 0
1.0 18 -71 0
1.0 89 -172 0
1.0 -84 -85 0
1.0 -200 111 0
1.0 175 -47 0
1.0 7 -155 0
1.0 105 125 0
1.0 -126 -20 0
1.0 -90 -195 0
1.0 -166 15 0
1.0 100 184 0
1.0 -102 -182 0
1.0 -49 119 0
1.0 -142 124 0
1.0 -184 5 0
1.0 166 -136 0
1.0 -63 70 0
1.0 -172 174 0
1.0 158 75 0
1.0 57 -68 0
1.0 -187 -163 0
1.0 -87 17 0
1.0 21 -187 0
1.0 -122 -165 0
1.0 35 70 0
1.0 44 39 0
1.0 113 -161 0
1.0 29 70 0
1.0 -33 -183 0
1.0 -199 139 0
1.0 126 62 0
1.0 26 151 0
1.0 20 93 0
1.0 132 145 0
1.0 106 -127 0
1.0 -197 88 0
1.0 -71 93 0
1.0 32 -135 0
1.0 196 94 0
1.0 44 36 0
1.0 -129 149 0
1.0 -94 -193 0
1.0 -120 -117 0
1.0 -4 82 0
1.0 -175 90 0
1.0 -25 32 0
1.0 125 -166 0
1.0 1 -123 0
1.0 -72 -160 0
1.0 -152 92 0
1.0 -8 97 0
1.0 179 -130 0
1.0 -20 27 0
1.0 58 -121 0
1.0 -86 105 0
1.0 28 184 0
1.0 144 4 0
1.0 -96 -27 0
1.0 -124 -153 0
1.0 83 -197 0
1.0 -24 12 0
1.0 132 9 0
1.0 -114 -16 0
1.0 200 -121 0
1.0 125 102 0
1.0 -129 4 0
1.0 -156 35 0
1.0 -31 7 0
1.0 -19 -86 0
1.0 -95 1 0
1.0 -17 72 0
1.0 -193 -186 0
1.0 -88 196 0
1.0 199 -57 0
1.0 -91 -21 0
1.0 -28 133 0
1.0 -18 -113 0
1.0 -113 -163 0
1.0 -35 67 0
1.0 -53 -103 0
1.0 -98 78 0
1.0 135 25 0
1.0 -45 44 0
1.0 -176 -124 0
1.0 -36 -112 0
1.0 74 -25 0
1.0 -91 -23 0
1.0 125 77 0
1.0 -155 40 0
1.0 -64 -170 0
1.0 -13 -61 0
1.0 -185 98 0
1.0 -9 88 0
1.0 -113 47 0
1.0 -70 -125 0
1.0 2 -30 0
1.0 69 -136 0
1.0 106 -159 0
1.0 -19 20 0
1.0 118 -89 0
1.0 177 193 0
1.0 40 -200 0
1.0 -125 -38 0
1.0 68 -120 0
1.0 56 -126 0
1.0 84 -108 0
1.0 -128 186 0
1.0 -74 129 0
1.0 -121 -179 0
1.0 178 -32 0
1.0 70 -172 0
1.0 92 -109 0
1.0 -34 -139 0
1.0 46 -187 0
1.0 172 125 0
1.0 54 -187 0
1.0 -166 -36 0
1.0 67 -3 0
1.0 174 72 0
1.0 181 144 0
1.0 -83 -120 0
1.0 -107 150 0
1.0 -75 -119 0
1.0 -105 21 0
1.0 57 -36 0
1.0 39 58 0
1.0 129 -132 0
1.0 -76 -89 0
1.0 9 -54 0
1.0 -3 188 0
1.0 106 119 0
1.0 140 -107 0
1.0 -143 -93 0
1.0 -150 179 0
1.0 -111 -71 0
1.0 -159 -111 0
1.0 164 -29 0
1.0 16 -78 0
1.0 -196 -49 0
1.0 -156 11 0
1.0 104 51 0
1.0 -30 -73 0
1.0 -143 -120 0
1.0 30 -69 0
1.0 -98 -153 0
1.0 30 2 0
1.0 -50 165 0
1.0 -176 92 0
1.0 -143 -183 0
1.0 -55 -65 0
1.0 184 38 0
1.0 106 169 0
1.0 -121 -164 0
1.0 -166 150 0
1.0 115 136 0
1.0 -28 -123 0
1.0 -105 -102 0
1.0 -166 -54 0
1.0 -92 -56 0
1.0 -24 -168 0
1.0 131 115 0
1.0 -64 -70 0
1.0 6 131 0
1.0 54 -38 0
1.0 -139 -145 0
1.0 199 75 0
1.0 131 -16 0
1.0 183 -86 0
1.0 200 194 0
1.0 63 120 0
1.0 -51 -110 0
1.0 148 105 0
1.0 -50 180 0
1.0 -54 -44 0
1.0 -59 24 0
1.0 -110 -38 0
1.0 -31 163 0
1.0 -83 -15 0
1.0 125 63 0
1.0 -167 98 0
1.0 77 -147 0
1.0 -191 2 0
1.0 26 -54 0
1.0 91 -43 0
1.0 6 16 0
1.0 30 -176 0
1.0 38 56 0
1.0 154 182 0
1.0 -129 -85 0
1.0 -86 -77 0
1.0 131 57 0
1.0 -100 -89 0
1.0 -105 -157 0
1.0 132 -12 0
1.0 -68 113 0
1.0 95 195 0
1.0 -79 -13 0
1.0 89 109 0
1.0 166 121 0
1.0 -10 -182 0
1.0 138 161 0
1.0 173 135 0
1.0 47 -13 0
1.0 -7 113 0
1.0 125 106 0
1.0 14 -126 0
1.0 46 72 0
1.0 -54 -13 0
1.0 174 -15 0
1.0 -150 -99 0
1.0 -111 -47 0
1.0 159 101 0
1.0 6 52 0
1.0 -178 128 0
1.0 200 43 0
1.0 55 46 0
1.0 -61 105 0
1.0 3 -160 0
1.0 6 -144 0
1.0 45 33 0
1.0 85 144 0
1.0 71 68 0
1.0 -110 -163 0
1.0 -9 167 0
1.0 72 166 0
1.0 -125 -86 0
1.0 30 18 0
1.0 -50 -142 0
1.0 -85 -193 0
1.0 61 -80 0
1.0 -43 150 0
1.0 -116 -127 0
1.0 93 200 0
1.0 -85 -48 0
1.0 -66 -42 0
1.0 183 111 0
1.0 104 -45 0
1.0 -125 -50 0
1.0 199 -69 0
1.0 -196 137 0
1.0 -136 163 0
1.0 -11 52 0
1.0 -93 122 0
1.0 -33 -39 0
1.0 83 166 0
1.0 -16 34 0
1.0 -103 191 0
1.0 -127 30 0
1.0 193 90 0
1.0 141 18 0
1.0 -140 -68 0
1.0 -107 -51 0
1.0 -17 8 0
1.0 42 -171 0
1.0 161 174 0
1.0 -3 -29 0
1.0 -118 34 0
1.0 51 -76 0
1.0 -144 200 0
1.0 51 70 0
1.0 78 -37 0
1.0 7 -144 0
1.0 118 -107 0
1.0 -135 6 0
1.0 -39 113 0
1.0 188 -3 0
1.0 -3 40 0
1.0 -110 -21 0
1.0 -58 19 0
1.0 163 171 0
1.0 77 87 0
1.0 92 -116 0
1.0 29 174 0
1.0 -176 -98 0
1.0 138 128 0
1.0 149 151 0
1.0 170 -141 0
1.0 111 -101 0
1.0 -187 12 0
1.0 127 -60 0
1.0 -33 29 0
1.0 -126 118 0
1.0 -46 -18 0
1.0 -168 -144 0
1.0 84 -68 0
1.0 -168 -80 0
1.0 91 179 0
1.0 -38 43 0
1.0 71 -144 0
1.0 61 -66 0
1.0 83 169 0
1.0 -113 -98 0
1.0 -166 -55 0
1.0 135 172 0
1.0 151 -122 0
1.0 165 16 0
1.0 159 138 0
1.0 -3 91 0
1.0 -59 -25 0
1.0 122 -167 0
1.0 -158 -21 0
1.0 109 137 0
1.0 -180 -68 0
1.0 -126 29 0
1.0 60 -173 0
1.0 98 -151 0
1.0 86 179 0
1.0 -146 -131 0
1.0 151 95 0
1.0 31 112 0
1.0 179 -82 0
1.0 -111 -159 0
1.0 -131 34 0
1.0 -184 128 0
1.0 107 195 0
1.0 -126 61 0
1.0 -156 -188 0
1.0 -99 24 0
1.0 -106 1 0
1.0 -159 148 0
1.0 -181 -105 0
1.0 33 -69 0
1.0 -63 -111 0
1.0 172 -146 0
1.0 -134 199 0
1.0 -22 -108 0
1.0 -108 88 0
1.0 -35 128 0
1.0 -32 74 0
1.0 142 14 0
1.0 -124 194 0
1.0 140 57 0
1.0 -55 134 0
1.0 42 -11 0
1.0 99 -146 0
1.0 -73 -171 0
1.0 -45 -128 0
1.0 -142 172 0
1.0 -165 -183 0
1.0 -40 182 0
1.0 -116 -79 0
1.0 -90 -174 0
1.0 -120 -122 0
1.0 92 -70 0
1.0 -198 -66 0
1.0 37 113 0
1.0 -96 -164 0
1.0 146 81 0
1.0 160 199 0
1.0 173 123 0
1.0 44 -159 0
1.0 29 181 0
1.0 -46 194 0
1.0 106 170 0
1.0 -134 190 0
1.0 -71 164 0
1.0 162 -157 0
1.0 79 -117 0
1.0 76 -110 0
1.0 -90 -130 0
1.0 124 97 0
1.0 67 -103 0
1.0 92 -166 0
1.0 -129 18 0
1.0 175 71 0
1.0 -188 50 0
1.0 -159 34 0
1.0 -164 99 0
1.0 -196 2 0
1.0 104 -146 0
1.0 -111 140 0
1.0 -158 -148 0
1.0 -19 154 0
1.0 3 -161 0
1.0 195 -37 0
1.0 135 -194 0
1.0 -195 159 0
1.0 104 53 0
1.0 192 -49 0
1.0 197 182 0
1.0 135 -66 0
1.0 27 89 0
1.0 -126 110 0
1.0 -104 22 0
1.0 181 196 0
1.0 88 -99 0
1.0 -151 -174 0
1.0 55 -146 0
1.0 -167 5 0
1.0 -104 168 0
1.0 -146 -40 0
1.0 -30 15 0
1.0 10 31 0
1.0 130 68 0
1.0 41 164 0
1.0 110 80 0
1.0 -84 -163 0
1.0 131 111 0
1.0 151 -118 0
1.0 -132 -190 0
1.0 21 -32 0
1.0 99 -69 0
1.0 33 -42 0
1.0 121 51 0
1.0 -13 -147 0
1.0 58 194 0
1.0 -112 62 0
1.0 -51 176 0
1.0 7 -22 0
1.0 91 -50 0
1.0 92 79 0
1.0 129 -81 0
1.0 28 10 0
1.0 4 -104 0
1.0 -165 79 0
1.0 54 144 0
1.0 -166 107 0
1.0 -157 10 0
1.0 89 44 0
1.0 -124 -78 0
1.0 88 44 0
1.0 147 -129 0
1.0 -7 165 0
1.0 -109 12 0
1.0 -118 86 0
1.0 -96 -108 0
1.0 152 182 0
1.0 60 -160 0
1.0 4 -63 0
1.0 191 -44 0
1.0 9 -187 0
1.0 -198 -179 0
1.0 -65 -119 0
1.0 -27 -111 0
1.0 93 -144 0
1.0 104 -80 0
1.0 142 -137 0
1.0 -181 -117 0
1.0 -103 -189 0
1.0 168 96 0
1.0 -15 5 0
1.0 116 136 0
1.0 -79 -73 0
1.0 152 59 0
1.0 196 -145 0
1.0 -61 -156 0
1.0 145 -71 0
1.0 -167 -80 0
1.0 84 -136 0
1.0 72 -42 0
1.0 -114 167 0
1.0 -26 21 0
1.0 -165 184 0
1.0 -139 164 0
1.0 -35 54 0
1.0 -133 139 0
1.0 75 -4 0
1.0 45 -23 0
1.0 190 28 0
1.0 49 181 0
1.0 164 -35 0
1.0 -198 29 0
1.0 82 181 0
1.0 120 -14 0
1.0 -17 47 0
1.0 70 36 0
1.0 64 -43 0
1.0 -24 -111 0
1.0 145 -165 0
1.0 -194 76 0
1.0 57 -7 0
1.0 -20 121 0
1.0 168 110 0
1.0 146 117 0
1.0 -160 -170 0
1.0 -81 47 0
1.0 -12 60 0
1.0 135 -142 0
1.0 -149 -169 0
1.0 90 137 0
1.0 47 -102 0
1.0 19 -190 0
1.0 -159 122 0
1.0 169 -130 0
1.0 -189 -32 0
1.0 -174 -64 0
1.0 32 -82 0
1.0 -19 93 0
1.0 194 71 0
1.0 -61 57 0
1.0 179 -150 0
1.0 -79 122 0
1.0 -153 -111 0
1.0 175 107 0
1.0 -188 136 0
1.0 29 105 0
1.0 175 126 0
1.0 183 -24 0
1.0 -173 112 0
1.0 -33 -35 0
1.0 -146 -111 0
1.0 -17 159 0
1.0 95 -53 0
1.0 -157 -81 0
1.0 -7 -180 0
1.0 -4 -21 0
1.0 132 -58 0
1.0 -93 147 0
1.0 -57 62 0
1.0 21 -85 0
1.0 137 88 0
1.0 169 -183 0
1.0 -162 -192 0
1.0 -12 -114 0
1.0 -172 169 0
1.0 -115 -58 0
1.0 120 -61 0
1.0 146 121 0
1.0 -8 -92 0
1.0 -75 1 0
1.0 192 114 0
1.0 -27 -142 0
1.0 111 54 0
1.0 -112 164 0
1.0 -25 -38 0
1.0 158 -25 0
1.0 -117 -27 0
1.0 28 91 0
1.0 5 28 0
1.0 170 169 0
1.0 -23 -91 0
1.0 -54 99 0
1.0 137 135 0
1.0 160 99 0
1.0 126 -1 0
1.0 -92 94 0
1.0 -122 194 0
1.0 -163 -156 0
1.0 -46 75 0
1.0 -174 -82 0
1.0 16 -26 0
1.0 124 64 0
1.0 65 -117 0
1.0 11 -174 0
1.0 168 -178 0
1.0 -134 -193 0
1.0 68 33 0
1.0 -114 -58 0
1.0 -83 155 0
1.0 19 155 0
1.0 72 57 0
1.0 31 -90 0
1.0 -68 36 0
1.0 -28 42 0
1.0 -74 -59 0
1.0 -116 -86 0
1.0 41 20 0
1.0 -174 60 0
1.0 -117 -180 0
1.0 -70 -140 0
1.0 -175 71 0
1.0 113 -117 0
1.0 -175 33 0
1.0 119 -88 0
1.0 108 94 0
1.0 -154 158 0
1.0 138 53 0
1.0 -192 -161 0
1.0 -32 -80 0
1.0 -196 -66 0
1.0 98 101 0
1.0 -189 151 0
1.0 -44 -191 0
1.0 149 103 0
1.0 155 -84 0
1.0 -45 36 0
1.0 115 -81 0
1.0 146 149 0
1.0 50 143 0
1.0 -93 -34 0
1.0 -25 -112 0
1.0 14 -200 0
1.0 -83 -152 0
1.0 187 -28 0
1.0 108 23 0
1.0 172 92 0
1.0 34 -155 0
1.0 189 194 0
1.0 -105 -195 0
1.0 194 44 0
1.0 195 -3 0
1.0 30 -7 0
1.0 -30 93 0
1.0 184 85 0
1.0 -40 82 0
1.0 75 -6 0
1.0 200 -25 0
1.0 68 184 0
1.0 186 73 0
1.0 -80 -125 0
1.0 -18 142 0
1.0 26 131 0
1.0 12 162 0
1.0 167 -133 0
1.0 -158 162 0
1.0 146 -29 0
1.0 -102 -131 0
1.0 56 99 0
1.0 40 199 0
1.0 -130 -93 0
1.0 55 24 0
1.0 -157 -92 0
1.0 -54 -147 0
1.0 -175 27 0
1.0 158 76 0
1.0 175 147 0
1.0 145 161 0
1.0 53 -10 0
1.0 -34 -42 0
1.0 -134 -115 0
1.0 -61 44 0
1.0 -70 115 0
1.0 190 -170 0
1.0 -116 128 0
1.0 -88 -57 0
1.0 66 149 0
1.0 190 -176 0
1.0 -90 -194 0
1.0 -37 -94 0
1.0 -8 -100 0
1.0 -69 -175 0
1.0 102 -140 0
1.0 -196 179 0
1.0 -127 -178 0
1.0 153 50 0
1.0 -43 148 0
1.0 -41 181 0
1.0 80 -118 0
1.0 -92 -8 0
1.0 -148 -177 0
1.0 155 113 0
1.0 -90 164 0
1.0 13 36 0
1.0 -183 79 0
1.0 59 -119 0
1.0 36 -119 0
1.0 -127 17 0
1.0 194 -103 0
1.0 15 -20 0
1.0 -183 -27 0
1.0 63 32 0
1.0 110 -185 0
1.0 -103 -141 0
1.0 60 -190 0
1.0 7 186 0
1.0 -88 -75 0
1.0 94 179 0
1.0 5 153 0
1.0 -184 122 0
1.0 107 181 0
1.0 -121 -165 0
1.0 -155 -12 0
1.0 -197 24 0
1.0 -98 -110 0
1.0 88 192 0
1.0 -144 -139 0
1.0 61 -72 0
1.0 -52 -80 0
1.0 -44 -122 0
1.0 -134 -117 0
1.0 141 120 0
1.0 30 -200 0
1.0 192 -97 0
1.0 35 169 0
1.0 40 81 0
1.0 160 37 0
1.0 158 15 0
1.0 132 161 0
1.0 -81 -35 0
1.0 35 141 0
1.0 -37 36 0
1.0 -5 22 0
1.0 -103 28 0
1.0 64 199 0
1.0 -14 -67 0
1.0 27 -133 0
1.0 167 128 0
1.0 68 -43 0
1.0 -79 187 0
1.0 -8 -143 0
1.0 -170 63 0
1.0 62 37 0
1.0 104 -166 0
1.0 98 38 0
1.0 165 54 0
1.0 -96 -92 0
1.0 78 114 0
1.0 -56 185 0
1.0 48 -166 0
1.0 -3 -111 0
1.0 77 -4 0
1.0 41 73 0
1.0 126 104 0
1.0 -195 176 0
1.0 -90 -54 0
1.0 -38 152 0
1.0 -118 -27 0
1.0 138 177 0
1.0 -181 62 0
1.0 135 25 0
1.0 128 -64 0
1.0 -40 -78 0
1.0 131 -151 0
1.0 102 43 0
1.0 -69 47 0
1.0 24 164 0
1.0 26 -7 0
1.0 32 -50 0
1.0 114 -102 0
1.0 179 -76 0
1.0 26 -155 0
1.0 -198 132 0
1.0 179 84 0
1.0 48 92 0
1.0 99 -30 0
1.0 80 -51 0
1.0 -153 -170 0
1.0 45 29 0
1.0 -184 -120 0
1.0 51 142 0
1.0 26 120 0
1.0 -12 -37 0
1.0 66 -176 0
1.0 -27 -127 0
1.0 -97 -87 0
1.0 115 151 0
1.0 70 -8 0
1.0 -150 -127 0
1.0 46 180 0
1.0 -16 192 0
1.0 168 -5 0
1.0 -132 167 0
1.0 -53 -84 0
1.0 35 -181 0
1.0 189 -146 0
1.0 -73 -174 0
1.0 -154 -161 0
1.0 153 -142 0
1.0 -147 79 0
1.0 -45 88 0
1.0 171 76 0
1.0 -56 132 0
1.0 -78 -134 0
1.0 107 95 0
1.0 55 44 0
1.0 -186 -80 0
1.0 158 41 0
1.0 -129 115 0
1.0 -191 166 0
1.0 98 -14 0
1.0 -147 71 0
1.0 -166 194 0
1.0 38 142 0
1.0 -22 -154 0
1.0 -194 -164 0
1.0 78 82 0
1.0 -48 -127 0
1.0 -140 3 0
1.0 -74 46 0
1.0 39 53 0
1.0 195 85 0
1.0 -38 53 0
1.0 -17 177 0
1.0 -59 -176 0
1.0 102 76 0
1.0 -78 -171 0
1.0 -16 66 0
1.0 -119 -48 0
1.0 -132 -30 0
1.0 83 123 0
1.0 -99 -155 0
1.0 130 155 0
1.0 30 -114 0
1.0 85 -200 0
1.0 -66 -48 0
1.0 95 86 0
1.0 -115 -24 0
1.0 146 196 0
1.0 151 89 0
1.0 -43 65 0
1.0 -179 185 0
1.0 -184 39 0
1.0 86 -118 0
1.0 3 -128 0
1.0 -151 3 0
1.0 -199 -10 0
1.0 98 -142 0
1.0 7 -140 0
1.0 125 -192 0
1.0 -30 -10 0
1.0 128 -190 0
1.0 117 104 0
1.0 -106 -161 0
1.0 171 105 0
1.0 47 81 0
1.0 21 -22 0
1.0 14 84 0
1.0 -93 10 0
1.0 -199 -56 0
1.0 -159 197 0
1.0 -158 -147 0
1.0 -52 20 0
1.0 -100 -6 0
1.0 28 187 0
1.0 70 -117 0
1.0 -126 -43 0
1.0 99 132 0
1.0 -129 23 0
1.0 170 89 0
1.0 -109 11 0
1.0 -17 69 0
1.0 55 -192 0
1.0 109 169 0
1.0 -12 -69 0
1.0 -1 -199 0
1.0 22 -88 0
1.0 176 28 0
1.0 39 132 0
1.0 200 20 0
1.0 -12 -185 0
1.0 -153 -64 0
1.0 132 -114 0
1.0 113 -41 0
1.0 -128 -75 0
1.0 -103 -139 0
1.0 -70 80 0
1.0 -100 -96 0
1.0 81 100 0
1.0 -164 187 0
1.0 101 72 0
1.0 -112 87 0
1.0 -161 74 0
1.0 12 132 0
1.0 -11 -200 0
1.0 96 -74 0
1.0 174 -55 0
1.0 42 -7 0
1.0 -79 -57 0
1.0 144 -103 0
1.0 -177 -174 0
1.0 105 -170 0
1.0 170 21 0
1.0 94 49 0
1.0 104 -51 0
1.0 58 -35 0
1.0 -92 43 0
1.0 -146 -157 0
1.0 -130 104 0
1.0 -74 180 0
1.0 -1 176 0
1.0 -25 -149 0
1.0 199 165 0
1.0 -199 160 0
1.0 -2 -118 0
1.0 74 62 0
1.0 166 178 0
1.0 158 -188 0
1.0 163 -189 0
1.0 -137 -13 0
1.0 -178 -188 0
1.0 147 -183 0
1.0 100 -191 0
1.0 -52 163 0
1.0 141 15 0
1.0 2 -137 0
1.0 -126 108 0
1.0 -120 67 0
1.0 55 188 0
1.0 -170 140 0
1.0 130 -43 0
1.0 -5 -20 0
1.0 35 55 0
1.0 192 -99 0
1.0 -6 -153 0
1.0 20 175 0
1.0 162 -97 0
1.0 36 -23 0
1.0 -66 44 0
1.0 64 144 0
1.0 -199 -59 0
1.0 -157 -136 0
1.0 89 -84 0
1.0 -58 112 0
1.0 -8 57 0
1.0 80 -153 0
1.0 197 153 0
1.0 -97 30 0
1.0 88 94 0
1.0 30 -190 0
1.0 74 -96 0
1.0 -7 9 0
1.0 66 -102 0
1.0 55 64 0
1.0 -17 -103 0
1.0 132 70 0
1.0 163 -93 0
1.0 -83 -70 0
1.0 165 -137 0
1.0 -146 38 0
1.0 -140 -43 0
1.0 106 -44 0
1.0 146 155 0
1.0 24 -44 0
1.0 -136 159 0
1.0 -29 -90 0
1.0 -26 -60 0
1.0 -98 151 0
1.0 193 138 0
1.0 181 -75 0
1.0 29 56 0
1.0 99 101 0
1.0 60 18 0
1.0 107 -25 0
1.0 -85 -46 0
1.0 197 -87 0
1.0 25 49 0
1.0 -124 -107 0
1.0 162 137 0
1.0 37 43 0
1.0 -61 -146 0
1.0 171 66 0
1.0 112 -5 0
1.0 91 -57 0
1.0 -106 182 0
1.0 -89 53 0
1.0 -189 185 0
1.0 -28 5 0
1.0 151 -106 0
1.0 -172 155 0
1.0 -159 14 0
1.0 -70 -87 0
1.0 69 -85 0
1.0 137 -184 0
1.0 -168 -118 0
1.0 122 72 0
1.0 -178 -137 0
1.0 91 169 0
1.0 182 24 0
1.0 111 -64 0
1.0 -148 30 0
1.0 13 -144 0
1.0 -61 -160 0
1.0 32 56 0
1.0 -193 46 0
1.0 -14 -192 0
1.0 16 -32 0
1.0 -96 74 0
1.0 -103 -42 0
1.0 185 138 0
1.0 98 -70 0
1.0 -126 -80 0
1.0 125 -98 0
1.0 -89 -134 0
1.0 166 182 0
1.0 -56 -136 0
1.0 177 -33 0
1.0 170 169 0
1.0 -38 -33 0
1.0 112 134 0
1.0 -31 -81 0
1.0 15 -110 0
1.0 92 -54 0
1.0 -189 -145 0
1.0 -177 -178 0
1.0 147 -133 0
1.0 -165 9 0
1.0 -142 -28 0
1.0 109 -88 0
1.0 -198 116 0
1.0 169 -143 0
1.0 -87 140 0
1.0 118 49 0
1.0 182 -22 0
1.0 30 -196 0
1.0 -24 -135 0
1.0 23 36 0
1.0 -151 -157 0
1.0 100 -145 0
1.0 85 200 0
1.0 49 57 0
1.0 -79 -115 0
1.0 110 -197 0
1.0 131 -22 0
1.0 -57 120 0
1.0 -77 -82 0
1.0 -27 -4 0
1.0 -3 10 0
1.0 67 -179 0
1.0 94 56 0
1.0 -53 -130 0
1.0 -151 1 0
1.0 121 -109 0
1.0 -190 142 0
1.0 -146 -134 0
1.0 -143 40 0
1.0 -19 -81 0
1.0 -137 -5 0
1.0 -134 51 0
1.0 52 -107 0
1.0 -16 108 0
1.0 49 -142 0
1.0 -76 148 0
1.0 188 142 0
1.0 -23 -181 0
1.0 -185 -34 0
1.0 84 -119 0
1.0 -26 96 0
1.0 3 76 0
1.0 17 67 0
1.0 -15 188 0
1.0 129 -138 0
1.0 -118 -128 0
1.0 161 57 0
1.0 -175 -24 0
1.0 119 -86 0
1.0 -162 -86 0
1.0 152 -17 0
1.0 -5 -181 0
1.0 118 177 0
1.0 -104 194 0
1.0 -50 157 0
1.0 181 88 0
1.0 174 -65 0
1.0 -151 -192 0
1.0 9 183 0
1.0 -163 36 0
1.0 -12 -30 0
1.0 -23 52 0
1.0 9 -89 0
1.0 176 -122 0
1.0 186 -108 0
1.0 99 -196 0
1.0 -179 -106 0
1.0 141 -66 0
1.0 96 -137 0
1.0 -188 -48 0
1.0 -136 -88 0
1.0 10 -72 0
1.0 -179 144 0
1.0 -140 -170 0
1.0 75 106 0
1.0 -172 82 0
1.0 -19 36 0
1.0 84 176 0
1.0 -64 187 0
1.0 58 191 0
1.0 -135 200 0
1.0 -170 99 0
1.0 4 -52 0
1.0 134 -28 0
1.0 -64 -26 0
1.0 -2 161 0
1.0 -147 98 0
1.0 88 7 0
1.0 7 -154 0
1.0 52 88 0
1.0 140 80 0
1.0 108 -71 0
1.0 -96 183 0
1.0 -144 85 0
1.0 182 102 0
1.0 109 -133 0
1.0 87 -188 0
1.0 -76 110 0
1.0 189 22 0
1.0 92 -113 0
1.0 96 185 0
1.0 -70 48 0
1.0 -149 22 0
1.0 -155 12 0
1.0 -200 62 0
1.0 172 -170 0
1.0 192 178 0
1.0 91 -124 0
1.0 109 -155 0
1.0 2 -154 0
1.0 175 -150 0
1.0 -162 -180 0
1.0 41 148 0
1.0 -117 -125 0
1.0 -102 -29 0
1.0 -153 60 0
1.0 15 4 0
1.0 -157 -67 0
1.0 16 -176 0
1.0 -155 -30 0
1.0 177 173 0
1.0 97 -181 0
1.0 -10 -192 0
1.0 52 170 0
1.0 173 -60 0
1.0 126 -50 0
1.0 -25 -122 0
1.0 -152 -55 0
1.0 27 -182 0
1.0 -163 -24 0
1.0 -16 113 0
1.0 -82 155 0
1.0 -14 -16 0
1.0 66 46 0
1.0 168 -197 0
1.0 52 43 0
1.0 25 -69 0
1.0 -93 -123 0
1.0 -36 -91 0
1.0 -46 109 0
1.0 -125 -156 0
1.0 1 -77 0
1.0 74 -148 0
1.0 191 134 0
1.0 2 4 0
1.0 127 -160 0
1.0 51 178 0
1.0 -86 50 0
1.0 -5 152 0
1.0 -28 -79 0
1.0 27 59 0
1.0 192 -28 0
1.0 32 -33 0
1.0 -193 90 0
1.0 -68 -198 0
1.0 -47 93 0
1.0 44 164 0
1.0 -43 30 0
1.0 88 198 0
1.0 25 117 0
1.0 149 -162 0
1.0 -52 -134 0
1.0 131 -124 0
1.0 17 36 0
1.0 -199 86 0
1.0 -115 104 0
1.0 101 -196 0
1.0 -112 157 0
1.0 118 -197 0
1.0 130 187 0
1.0 110 -160 0
1.0 -195 -68 0
1.0 153 118 0
1.0 21 -145 0
1.0 140 153 0
1.0 -109 30 0
1.0 -26 -114 0
1.0 100 83 0
1.0 -42 54 0
1.0 122 120 0
1.0 -37 65 0
1.0 -10 -12 0
1.0 -165 27 0
1.0 -56 111 0
1.0 24 -96 0
1.0 -179 53 0
1.0 107 66 0
1.0 -186 87 0
1.0 152 -43 0
1.0 -55 59 0
1.0 86 -109 0
1.0 20 194 0
1.0 -89 60 0
1.0 113 99 0
1.0 165 -144 0
1.0 -31 -148 0
1.0 -191 52 0
1.0 111 -52 0
1.0 -161 -158 0
1.0 151 160 0
1.0 -20 -191 0
1.0 -90 193 0
1.0 137 -197 0
1.0 -144 -176 0
1.0 -27 -90 0
1.0 -142 -44 0
1.0 1 -70 0
1.0 -30 107 0
1.0 -98 -97 0
1.0 90 131 0
1.0 -128 44 0
1.0 19 140 0
1.0 -30 -185 0
1.0 29 116 0
1.0 -185 155 0
1.0 61 -172 0
1.0 -69 -43 0
1.0 -173 185 0
1.0 -28 175 0
1.0 114 -177 0
1.0 -161 -74 0
1.0 189 -187 0
1.0 -142 199 0
1.0 -170 50 0
1.0 -92 105 0
1.0 -89 -179 0
1.0 -154 135 0
1.0 112 54 0
1.0 128 -125 0
1.0 111 79 0
1.0 77 -54 0
1.0 14 -85 0
1.0 81 82 0
1.0 46 -124 0
1.0 86 -81 0
1.0 91 164 0
1.0 -25 -183 0
1.0 -73 -177 0
1.0 31 28 0
1.0 -112 -93 0
1.0 175 169 0
1.0 92 -65 0
1.0 -145 94 0
1.0 58 183 0
1.0 -166 176 0
1.0 -152 -166 0
1.0 193 -62 0
1.0 155 -188 0
1.0 -157 150 0
1.0 15 -152 0
1.0 -45 -141 0
1.0 -124 44 0
1.0 -19 -170 0
1.0 -136 -112 0
1.0 174 -179 0
1.0 167 -131 0
1.0 -80 7 0
1.0 159 196 0
1.0 -137 47 0
1.0 -91 -90 0
1.0 60 -74 0
1.0 -186 -34 0
1.0 13 -158 0
1.0 -88 -143 0
1.0 150 -74 0
1.0 -69 115 0
1.0 161 16 0
1.0 -105 -13 0
1.0 -86 43 0
1.0 76 84 0
1.0 41 -115 0
1.0 58 170 0
1.0 -44 -158 0
1.0 -72 24 0
1.0 39 -182 0
1.0 -195 46 0
1.0 -88 -69 0
1.0 152 -181 0
1.0 -96 -119 0
1.0 -89 -18 0
1.0 175 73 0
1.0 97 -161 0
1.0 143 -162 0
1.0 7 187 0
1.0 56 169 0
1.0 -150 109 0
1.0 -27 -122 0
1.0 139 -157 0
1.0 -30 -91 0
1.0 51 -36 0
1.0 -198 140 0
1.0 127 -148 0
1.0 -117 156 0
1.0 -64 188 0
1.0 110 109 0
1.0 -66 53 0
1.0 144 -118 0
1.0 -154 -82 0
1.0 -21 -119 0
1.0 -66 -53 0
1.0 9 117 0
1.0 -105 160 0
1.0 69 -169 0
1.0 22 -21 0
1.0 -139 51 0
1.0 133 -147 0
1.0 -65 -198 0
1.0 -51 29 0
1.0 -145 162 0
1.0 122 -94 0
1.0 -63 123 0
